\ Model Model_sub
\ LP format - for model browsing. Use MPS format to capture full model detail.
Minimize
  C0 + C1 + 0.9900596421471173 C2 + 0.9850894632206759 C3 + C4 + C5
   + 1.009940357852883 C6 + 1.014910536779324 C7
Subject To
 R0: 0.00497017892644135 C2 - 0.00497017892644135 C6 >= 4.970178926441352
 R1: 0.00497017892644135 C3 - 0.00497017892644135 C7 >= 3.980119284294235
Bounds
 C0 <= 1000
 C1 <= 1000
 C2 <= 1000
 C3 <= 1000
 C4 <= 1000
 C5 <= 1000
 C6 <= 1000
 C7 <= 1000
End
